This is Ipopt version 3.14.16, running with linear solver MUMPS 5.7.3.

Number of nonzeros in equality constraint Jacobian...:        0
Number of nonzeros in inequality constraint Jacobian.:      416
Number of nonzeros in Lagrangian Hessian.............:        0

Total number of variables............................:       13
                     variables with only lower bounds:        0
                variables with lower and upper bounds:       13
                     variables with only upper bounds:        0
Total number of equality constraints.................:        0
Total number of inequality constraints...............:       32
        inequality constraints with only lower bounds:        0
   inequality constraints with lower and upper bounds:        0
        inequality constraints with only upper bounds:       32

iter    objective    inf_pr   inf_du lg(mu)  ||d||  lg(rg) alpha_du alpha_pr  ls
   0  1.4132104e-01 0.00e+00 6.90e-01   0.0 0.00e+00    -  0.00e+00 0.00e+00   0
   1  1.4129439e-01 0.00e+00 7.75e-03  -5.9 6.97e-03    -  9.89e-01 1.00e+00h  1
   2  1.4070309e-01 0.00e+00 1.17e-02  -4.0 4.01e-02    -  9.83e-01 1.00e+00f  1
   3  1.4044666e-01 0.00e+00 2.51e-04  -4.3 1.76e-01    -  1.00e+00 1.00e+00h  1
   4  1.4043566e-01 0.00e+00 4.07e-03 -10.3 1.72e-01    -  7.12e-01 9.97e-01h  1
   5  1.4034212e-01 3.05e-04 6.10e-05  -5.6 3.84e-02    -  1.00e+00 1.00e+00h  1
   6  1.4034786e-01 4.91e-05 3.62e-05  -6.6 2.22e-02    -  9.99e-01 1.00e+00h  1

Number of Iterations....: 6

                                   (scaled)                 (unscaled)
Objective...............:   1.4034785927711654e-01    1.4034785927711654e-01
Dual infeasibility......:   3.6165420661974882e-05    3.6165420661974882e-05
Constraint violation....:   4.9105596917559399e-05    4.9105596917559399e-05
Variable bound violation:   0.0000000000000000e+00    0.0000000000000000e+00
Complementarity.........:   1.2734015947342416e-06    1.2734015947342416e-06
Overall NLP error.......:   4.9105596917559399e-05    4.9105596917559399e-05


Number of objective function evaluations             = 7
Number of objective gradient evaluations             = 7
Number of equality constraint evaluations            = 0
Number of inequality constraint evaluations          = 7
Number of equality constraint Jacobian evaluations   = 0
Number of inequality constraint Jacobian evaluations = 7
Number of Lagrangian Hessian evaluations             = 0
Total seconds in IPOPT                               = 1.048

EXIT: Optimal Solution Found.
